(set-info :min-time 0.179234331)
; Start decls (7)
(declare-fun b11 () (_ FloatingPoint 11 53))
(declare-fun b13 () (_ FloatingPoint 11 53))
(declare-fun b33 () (_ FloatingPoint 11 53))
(declare-fun b36 () (_ FloatingPoint 11 53))
(declare-fun b40 () (_ FloatingPoint 11 53))
(declare-fun b43 () (_ FloatingPoint 11 53))
(declare-fun b9 () (_ FloatingPoint 11 53))
; End decls
; Start constraints (6)
(assert (fp.lt b11 (fp.add roundNearestTiesToEven b13 b9)))
(assert (fp.leq b9 b11))
(assert (fp.leq b9 b33))
(assert (fp.leq b36 b9))
(assert (fp.leq b13 b40))
(assert (fp.leq b43 b13))
; End constraints
(check-sat)
